(declare-fun v14 () (_ BitVec 10))
(declare-fun v19 () (_ BitVec 3))
(assert
(let (($e15 (_ bv1 1)))
(let (($e23 (_ bv32767 15)))
(let (($e33 (_ bv0 7)))
(let (($e39 (_ bv127 7)))
(let (($e113         $e23        ))
(let (($e171 (concat $e33 v19)))
(let (($e174 (bvand        $e171         v14   )))
(let (($e177 (concat $e39  v19)))
(let (($e178 (bvand $e177 $e174)))
(let (($e704 (   extract      $e177)))
             (ite        $e704  $e174 $e178)
                                                                                                                                                                                                                                                                                                                                                                                                                                                                                                                                                                                                                                                                                                                                                                                                                                                                                                                                                                                                                                                                                                                                                                                                                                                                                                                                                                                                                                                                                                                                                                                                                                                                                                                                                                                                                                                                                                                                                                                                                                                                                                                                                                                                                                                                                                                                                                                                                                                                                                                                                                                                                                                                                                                                                                                                                                                                                                                                                                                                                                                                                           )                                                                                                                                                                                                                                                                                                                                                                                                                                                                                                                                             ))  )  )                                                         )                                                )     )         )       )              )
